NAME : ftv64
TYPE : TOUR
DIMENSION : 65
TOUR_LENGTH : 2678.0
SECTION : TOUR_SECTION
1
62
29
51
30
52
25
26
27
20
21
9
10
44
45
13
36
47
46
11
14
18
19
17
16
48
6
8
37
2
38
57
65
39
35
58
59
5
40
41
42
43
12
61
15
7
33
55
28
22
49
23
24
50
60
64
53
31
32
63
54
56
34
3
4
-1
EOF
